r = [
0,74,50,122,138,75,14,27,94,22,2,0
];
p = [
0,27,10,6,29,25,15,1,25,5,12,0
];
e = [
0,16,2,4,13,17,11,3,4,9,5,0
];
d = [
0,101,60,172,171,118,29,28,127,27,14,186
];
d_bar = [
0,115,65,175,186,131,37,29,140,30,20,186
];
w = [
0,1.142857143,0.4,1.333333333,0.866666667,1.307692308,1.375,3,0.307692308,3,0.833333333,0
];
